minimize
obj: 1 x_1_ + 1 x_2_ + 1 x_3_ + 1 x_4_ + 1 x_5_ + 1 x_6_ + 1 x_7_ + 1 x_8_ + 1 x_9_ + 1 x_10_ + 1 x_11_ + 1 x_12_ + 1 x_13_ + 1 x_14_ + 1 x_15_ + 1 x_16_ + 1 x_17_ + 1 x_18_ + 1 x_19_ + 1 x_20_
subject to
c1_1: 1 t_1,1_ - 1 y_1,1_ <= 0
c2_1: 1 t_1,2_ - 1 y_1,1_ - 1 y_1,2_ <= 0
c3_1: 1 t_1,3_ - 1 y_1,2_ - 1 y_1,3_ <= 0
c4_1: 1 t_1,4_ - 1 y_1,3_ - 1 y_1,4_ <= 0
c5_1: 1 t_1,5_ - 1 y_1,4_ <= 0
c6_1: 1 t_2,1_ - 1 y_2,1_ <= 0
c7_1: 1 t_2,2_ - 1 y_2,1_ - 1 y_2,2_ <= 0
c8_1: 1 t_2,3_ - 1 y_2,2_ - 1 y_2,3_ <= 0
c9_1: 1 t_2,4_ - 1 y_2,3_ - 1 y_2,4_ <= 0
c10_1: 1 t_2,5_ - 1 y_2,4_ <= 0
c11_1: 1 t_3,1_ - 1 y_3,1_ <= 0
c12_1: 1 t_3,2_ - 1 y_3,1_ - 1 y_3,2_ <= 0
c13_1: 1 t_3,3_ - 1 y_3,2_ - 1 y_3,3_ <= 0
c14_1: 1 t_3,4_ - 1 y_3,3_ - 1 y_3,4_ <= 0
c15_1: 1 t_3,5_ - 1 y_3,4_ <= 0
c16_1: 1 t_4,1_ - 1 y_4,1_ <= 0
c17_1: 1 t_4,2_ - 1 y_4,1_ - 1 y_4,2_ <= 0
c18_1: 1 t_4,3_ - 1 y_4,2_ - 1 y_4,3_ <= 0
c19_1: 1 t_4,4_ - 1 y_4,3_ - 1 y_4,4_ <= 0
c20_1: 1 t_4,5_ - 1 y_4,4_ <= 0
c21_1: 1 t_5,1_ - 1 y_5,1_ <= 0
c22_1: 1 t_5,2_ - 1 y_5,1_ - 1 y_5,2_ <= 0
c23_1: 1 t_5,3_ - 1 y_5,2_ - 1 y_5,3_ <= 0
c24_1: 1 t_5,4_ - 1 y_5,3_ - 1 y_5,4_ <= 0
c25_1: 1 t_5,5_ - 1 y_5,4_ <= 0
c26_1: 1 t_6,1_ - 1 y_6,1_ <= 0
c27_1: 1 t_6,2_ - 1 y_6,1_ - 1 y_6,2_ <= 0
c28_1: 1 t_6,3_ - 1 y_6,2_ - 1 y_6,3_ <= 0
c29_1: 1 t_6,4_ - 1 y_6,3_ - 1 y_6,4_ <= 0
c30_1: 1 t_6,5_ - 1 y_6,4_ <= 0
c31_1: 1 t_7,1_ - 1 y_7,1_ <= 0
c32_1: 1 t_7,2_ - 1 y_7,1_ - 1 y_7,2_ <= 0
c33_1: 1 t_7,3_ - 1 y_7,2_ - 1 y_7,3_ <= 0
c34_1: 1 t_7,4_ - 1 y_7,3_ - 1 y_7,4_ <= 0
c35_1: 1 t_7,5_ - 1 y_7,4_ <= 0
c36_1: 1 t_8,1_ - 1 y_8,1_ <= 0
c37_1: 1 t_8,2_ - 1 y_8,1_ - 1 y_8,2_ <= 0
c38_1: 1 t_8,3_ - 1 y_8,2_ - 1 y_8,3_ <= 0
c39_1: 1 t_8,4_ - 1 y_8,3_ - 1 y_8,4_ <= 0
c40_1: 1 t_8,5_ - 1 y_8,4_ <= 0
c41_1: 1 t_9,1_ - 1 y_9,1_ <= 0
c42_1: 1 t_9,2_ - 1 y_9,1_ - 1 y_9,2_ <= 0
c43_1: 1 t_9,3_ - 1 y_9,2_ - 1 y_9,3_ <= 0
c44_1: 1 t_9,4_ - 1 y_9,3_ - 1 y_9,4_ <= 0
c45_1: 1 t_9,5_ - 1 y_9,4_ <= 0
c46_1: 1 t_10,1_ - 1 y_10,1_ <= 0
c47_1: 1 t_10,2_ - 1 y_10,1_ - 1 y_10,2_ <= 0
c48_1: 1 t_10,3_ - 1 y_10,2_ - 1 y_10,3_ <= 0
c49_1: 1 t_10,4_ - 1 y_10,3_ - 1 y_10,4_ <= 0
c50_1: 1 t_10,5_ - 1 y_10,4_ <= 0
c51_1: 1 t_11,1_ - 1 y_11,1_ <= 0
c52_1: 1 t_11,2_ - 1 y_11,1_ - 1 y_11,2_ <= 0
c53_1: 1 t_11,3_ - 1 y_11,2_ - 1 y_11,3_ <= 0
c54_1: 1 t_11,4_ - 1 y_11,3_ - 1 y_11,4_ <= 0
c55_1: 1 t_11,5_ - 1 y_11,4_ <= 0
c56_1: 1 t_12,1_ - 1 y_12,1_ <= 0
c57_1: 1 t_12,2_ - 1 y_12,1_ - 1 y_12,2_ <= 0
c58_1: 1 t_12,3_ - 1 y_12,2_ - 1 y_12,3_ <= 0
c59_1: 1 t_12,4_ - 1 y_12,3_ - 1 y_12,4_ <= 0
c60_1: 1 t_12,5_ - 1 y_12,4_ <= 0
c61: 1 t_13,1_ - 1 y_13,1_ <= 0
c62: 1 t_13,2_ - 1 y_13,1_ - 1 y_13,2_ <= 0
c63: 1 t_13,3_ - 1 y_13,2_ - 1 y_13,3_ <= 0
c64: 1 t_13,4_ - 1 y_13,3_ - 1 y_13,4_ <= 0
c65: 1 t_13,5_ - 1 y_13,4_ <= 0
c66: 1 t_14,1_ - 1 y_14,1_ <= 0
c67: 1 t_14,2_ - 1 y_14,1_ - 1 y_14,2_ <= 0
c68: 1 t_14,3_ - 1 y_14,2_ - 1 y_14,3_ <= 0
c69: 1 t_14,4_ - 1 y_14,3_ - 1 y_14,4_ <= 0
c70: 1 t_14,5_ - 1 y_14,4_ <= 0
c71: 1 t_15,1_ - 1 y_15,1_ <= 0
c72: 1 t_15,2_ - 1 y_15,1_ - 1 y_15,2_ <= 0
c73: 1 t_15,3_ - 1 y_15,2_ - 1 y_15,3_ <= 0
c74: 1 t_15,4_ - 1 y_15,3_ - 1 y_15,4_ <= 0
c75: 1 t_15,5_ - 1 y_15,4_ <= 0
c76: 1 t_16,1_ - 1 y_16,1_ <= 0
c77: 1 t_16,2_ - 1 y_16,1_ - 1 y_16,2_ <= 0
c78: 1 t_16,3_ - 1 y_16,2_ - 1 y_16,3_ <= 0
c79: 1 t_16,4_ - 1 y_16,3_ - 1 y_16,4_ <= 0
c80: 1 t_16,5_ - 1 y_16,4_ <= 0
c81: 1 t_17,1_ - 1 y_17,1_ <= 0
c82: 1 t_17,2_ - 1 y_17,1_ - 1 y_17,2_ <= 0
c83: 1 t_17,3_ - 1 y_17,2_ - 1 y_17,3_ <= 0
c84: 1 t_17,4_ - 1 y_17,3_ - 1 y_17,4_ <= 0
c85: 1 t_17,5_ - 1 y_17,4_ <= 0
c86: 1 t_18,1_ - 1 y_18,1_ <= 0
c87: 1 t_18,2_ - 1 y_18,1_ - 1 y_18,2_ <= 0
c88: 1 t_18,3_ - 1 y_18,2_ - 1 y_18,3_ <= 0
c89: 1 t_18,4_ - 1 y_18,3_ - 1 y_18,4_ <= 0
c90: 1 t_18,5_ - 1 y_18,4_ <= 0
c91: 1 t_19,1_ - 1 y_19,1_ <= 0
c92: 1 t_19,2_ - 1 y_19,1_ - 1 y_19,2_ <= 0
c93: 1 t_19,3_ - 1 y_19,2_ - 1 y_19,3_ <= 0
c94: 1 t_19,4_ - 1 y_19,3_ - 1 y_19,4_ <= 0
c95: 1 t_19,5_ - 1 y_19,4_ <= 0
c96: 1 t_20,1_ - 1 y_20,1_ <= 0
c97: 1 t_20,2_ - 1 y_20,1_ - 1 y_20,2_ <= 0
c98: 1 t_20,3_ - 1 y_20,2_ - 1 y_20,3_ <= 0
c99: 1 t_20,4_ - 1 y_20,3_ - 1 y_20,4_ <= 0
c100: 1 t_20,5_ - 1 y_20,4_ <= 0
c101: 4 t_1,1_ + 4 t_2,1_ + 4 t_3,1_ + 4 t_4,1_ + 4 t_5,1_ + 4 t_6,1_ + 4 t_7,1_ + 4 t_8,1_ + 4 t_9,1_ + 4 t_10,1_ + 4 t_11,1_ + 4 t_12,1_ + 4 t_13,1_ + 4 t_14,1_ + 4 t_15,1_ + 4 t_16,1_ + 4 t_17,1_ + 4 t_18,1_ + 4 t_19,1_ + 4 t_20,1_ + 1 t_1,2_ + 1 t_2,2_ + 1 t_3,2_ + 1 t_4,2_ + 1 t_5,2_ + 1 t_6,2_ + 1 t_7,2_ + 1 t_8,2_ + 1 t_9,2_ + 1 t_10,2_ + 1 t_11,2_ + 1 t_12,2_ + 1 t_13,2_ + 1 t_14,2_ + 1 t_15,2_ + 1 t_16,2_ + 1 t_17,2_ + 1 t_18,2_ + 1 t_19,2_ + 1 t_20,2_ + 1 t_1,4_ + 1 t_2,4_ + 1 t_3,4_ + 1 t_4,4_ + 1 t_5,4_ + 1 t_6,4_ + 1 t_7,4_ + 1 t_8,4_ + 1 t_9,4_ + 1 t_10,4_ + 1 t_11,4_ + 1 t_12,4_ + 1 t_13,4_ + 1 t_14,4_ + 1 t_15,4_ + 1 t_16,4_ + 1 t_17,4_ + 1 t_18,4_ + 1 t_19,4_ + 1 t_20,4_ + 4 t_1,5_ + 4 t_2,5_ + 4 t_3,5_ + 4 t_4,5_ + 4 t_5,5_ + 4 t_6,5_ + 4 t_7,5_ + 4 t_8,5_ + 4 t_9,5_ + 4 t_10,5_ + 4 t_11,5_ + 4 t_12,5_ + 4 t_13,5_ + 4 t_14,5_ + 4 t_15,5_ + 4 t_16,5_ + 4 t_17,5_ + 4 t_18,5_ + 4 t_19,5_ + 4 t_20,5_ <= 1
c1: 1 y_1,1_ + 1 y_1,2_ + 1 y_1,3_ + 1 y_1,4_ = 1
c2: 1 t_1,1_ + 1 t_1,2_ + 1 t_1,3_ + 1 t_1,4_ + 1 t_1,5_ = 1
c3: -2 t_1,1_ - 1 t_1,2_ + 1 t_1,4_ + 2 t_1,5_ - 1 x_1_ = 0
c4: 1 y_2,1_ + 1 y_2,2_ + 1 y_2,3_ + 1 y_2,4_ = 1
c5: 1 t_2,1_ + 1 t_2,2_ + 1 t_2,3_ + 1 t_2,4_ + 1 t_2,5_ = 1
c6: -2 t_2,1_ - 1 t_2,2_ + 1 t_2,4_ + 2 t_2,5_ - 1 x_2_ = 0
c7: 1 y_3,1_ + 1 y_3,2_ + 1 y_3,3_ + 1 y_3,4_ = 1
c8: 1 t_3,1_ + 1 t_3,2_ + 1 t_3,3_ + 1 t_3,4_ + 1 t_3,5_ = 1
c9: -2 t_3,1_ - 1 t_3,2_ + 1 t_3,4_ + 2 t_3,5_ - 1 x_3_ = 0
c10: 1 y_4,1_ + 1 y_4,2_ + 1 y_4,3_ + 1 y_4,4_ = 1
c11: 1 t_4,1_ + 1 t_4,2_ + 1 t_4,3_ + 1 t_4,4_ + 1 t_4,5_ = 1
c12: -2 t_4,1_ - 1 t_4,2_ + 1 t_4,4_ + 2 t_4,5_ - 1 x_4_ = 0
c13: 1 y_5,1_ + 1 y_5,2_ + 1 y_5,3_ + 1 y_5,4_ = 1
c14: 1 t_5,1_ + 1 t_5,2_ + 1 t_5,3_ + 1 t_5,4_ + 1 t_5,5_ = 1
c15: -2 t_5,1_ - 1 t_5,2_ + 1 t_5,4_ + 2 t_5,5_ - 1 x_5_ = 0
c16: 1 y_6,1_ + 1 y_6,2_ + 1 y_6,3_ + 1 y_6,4_ = 1
c17: 1 t_6,1_ + 1 t_6,2_ + 1 t_6,3_ + 1 t_6,4_ + 1 t_6,5_ = 1
c18: -2 t_6,1_ - 1 t_6,2_ + 1 t_6,4_ + 2 t_6,5_ - 1 x_6_ = 0
c19: 1 y_7,1_ + 1 y_7,2_ + 1 y_7,3_ + 1 y_7,4_ = 1
c20: 1 t_7,1_ + 1 t_7,2_ + 1 t_7,3_ + 1 t_7,4_ + 1 t_7,5_ = 1
c21: -2 t_7,1_ - 1 t_7,2_ + 1 t_7,4_ + 2 t_7,5_ - 1 x_7_ = 0
c22: 1 y_8,1_ + 1 y_8,2_ + 1 y_8,3_ + 1 y_8,4_ = 1
c23: 1 t_8,1_ + 1 t_8,2_ + 1 t_8,3_ + 1 t_8,4_ + 1 t_8,5_ = 1
c24: -2 t_8,1_ - 1 t_8,2_ + 1 t_8,4_ + 2 t_8,5_ - 1 x_8_ = 0
c25: 1 y_9,1_ + 1 y_9,2_ + 1 y_9,3_ + 1 y_9,4_ = 1
c26: 1 t_9,1_ + 1 t_9,2_ + 1 t_9,3_ + 1 t_9,4_ + 1 t_9,5_ = 1
c27: -2 t_9,1_ - 1 t_9,2_ + 1 t_9,4_ + 2 t_9,5_ - 1 x_9_ = 0
c28: 1 y_10,1_ + 1 y_10,2_ + 1 y_10,3_ + 1 y_10,4_ = 1
c29: 1 t_10,1_ + 1 t_10,2_ + 1 t_10,3_ + 1 t_10,4_ + 1 t_10,5_ = 1
c30: -2 t_10,1_ - 1 t_10,2_ + 1 t_10,4_ + 2 t_10,5_ - 1 x_10_ = 0
c31: 1 y_11,1_ + 1 y_11,2_ + 1 y_11,3_ + 1 y_11,4_ = 1
c32: 1 t_11,1_ + 1 t_11,2_ + 1 t_11,3_ + 1 t_11,4_ + 1 t_11,5_ = 1
c33: -2 t_11,1_ - 1 t_11,2_ + 1 t_11,4_ + 2 t_11,5_ - 1 x_11_ = 0
c34: 1 y_12,1_ + 1 y_12,2_ + 1 y_12,3_ + 1 y_12,4_ = 1
c35: 1 t_12,1_ + 1 t_12,2_ + 1 t_12,3_ + 1 t_12,4_ + 1 t_12,5_ = 1
c36: -2 t_12,1_ - 1 t_12,2_ + 1 t_12,4_ + 2 t_12,5_ - 1 x_12_ = 0
c37: 1 y_13,1_ + 1 y_13,2_ + 1 y_13,3_ + 1 y_13,4_ = 1
c38: 1 t_13,1_ + 1 t_13,2_ + 1 t_13,3_ + 1 t_13,4_ + 1 t_13,5_ = 1
c39: -2 t_13,1_ - 1 t_13,2_ + 1 t_13,4_ + 2 t_13,5_ - 1 x_13_ = 0
c40: 1 y_14,1_ + 1 y_14,2_ + 1 y_14,3_ + 1 y_14,4_ = 1
c41: 1 t_14,1_ + 1 t_14,2_ + 1 t_14,3_ + 1 t_14,4_ + 1 t_14,5_ = 1
c42: -2 t_14,1_ - 1 t_14,2_ + 1 t_14,4_ + 2 t_14,5_ - 1 x_14_ = 0
c43: 1 y_15,1_ + 1 y_15,2_ + 1 y_15,3_ + 1 y_15,4_ = 1
c44: 1 t_15,1_ + 1 t_15,2_ + 1 t_15,3_ + 1 t_15,4_ + 1 t_15,5_ = 1
c45: -2 t_15,1_ - 1 t_15,2_ + 1 t_15,4_ + 2 t_15,5_ - 1 x_15_ = 0
c46: 1 y_16,1_ + 1 y_16,2_ + 1 y_16,3_ + 1 y_16,4_ = 1
c47: 1 t_16,1_ + 1 t_16,2_ + 1 t_16,3_ + 1 t_16,4_ + 1 t_16,5_ = 1
c48: -2 t_16,1_ - 1 t_16,2_ + 1 t_16,4_ + 2 t_16,5_ - 1 x_16_ = 0
c49: 1 y_17,1_ + 1 y_17,2_ + 1 y_17,3_ + 1 y_17,4_ = 1
c50: 1 t_17,1_ + 1 t_17,2_ + 1 t_17,3_ + 1 t_17,4_ + 1 t_17,5_ = 1
c51: -2 t_17,1_ - 1 t_17,2_ + 1 t_17,4_ + 2 t_17,5_ - 1 x_17_ = 0
c52: 1 y_18,1_ + 1 y_18,2_ + 1 y_18,3_ + 1 y_18,4_ = 1
c53: 1 t_18,1_ + 1 t_18,2_ + 1 t_18,3_ + 1 t_18,4_ + 1 t_18,5_ = 1
c54: -2 t_18,1_ - 1 t_18,2_ + 1 t_18,4_ + 2 t_18,5_ - 1 x_18_ = 0
c55: 1 y_19,1_ + 1 y_19,2_ + 1 y_19,3_ + 1 y_19,4_ = 1
c56: 1 t_19,1_ + 1 t_19,2_ + 1 t_19,3_ + 1 t_19,4_ + 1 t_19,5_ = 1
c57: -2 t_19,1_ - 1 t_19,2_ + 1 t_19,4_ + 2 t_19,5_ - 1 x_19_ = 0
c58: 1 y_20,1_ + 1 y_20,2_ + 1 y_20,3_ + 1 y_20,4_ = 1
c59: 1 t_20,1_ + 1 t_20,2_ + 1 t_20,3_ + 1 t_20,4_ + 1 t_20,5_ = 1
c60: -2 t_20,1_ - 1 t_20,2_ + 1 t_20,4_ + 2 t_20,5_ - 1 x_20_ = 0
Bounds
x_1_ <= 2
x_2_ <= 2
x_3_ <= 2
x_4_ <= 2
x_5_ <= 2
x_6_ <= 2
x_7_ <= 2
x_8_ <= 2
x_9_ <= 2
x_10_ <= 2
x_11_ <= 2
x_12_ <= 2
x_13_ <= 2
x_14_ <= 2
x_15_ <= 2
x_16_ <= 2
x_17_ <= 2
x_18_ <= 2
x_19_ <= 2
x_20_ <= 2
t_1,1_ >= 0
t_2,1_ >= 0
t_3,1_ >= 0
t_4,1_ >= 0
t_5,1_ >= 0
t_6,1_ >= 0
t_7,1_ >= 0
t_8,1_ >= 0
t_9,1_ >= 0
t_10,1_ >= 0
t_11,1_ >= 0
t_12,1_ >= 0
t_13,1_ >= 0
t_14,1_ >= 0
t_15,1_ >= 0
t_16,1_ >= 0
t_17,1_ >= 0
t_18,1_ >= 0
t_19,1_ >= 0
t_20,1_ >= 0
t_1,2_ >= 0
t_2,2_ >= 0
t_3,2_ >= 0
t_4,2_ >= 0
t_5,2_ >= 0
t_6,2_ >= 0
t_7,2_ >= 0
t_8,2_ >= 0
t_9,2_ >= 0
t_10,2_ >= 0
t_11,2_ >= 0
t_12,2_ >= 0
t_13,2_ >= 0
t_14,2_ >= 0
t_15,2_ >= 0
t_16,2_ >= 0
t_17,2_ >= 0
t_18,2_ >= 0
t_19,2_ >= 0
t_20,2_ >= 0
t_1,3_ >= 0
t_2,3_ >= 0
t_3,3_ >= 0
t_4,3_ >= 0
t_5,3_ >= 0
t_6,3_ >= 0
t_7,3_ >= 0
t_8,3_ >= 0
t_9,3_ >= 0
t_10,3_ >= 0
t_11,3_ >= 0
t_12,3_ >= 0
t_13,3_ >= 0
t_14,3_ >= 0
t_15,3_ >= 0
t_16,3_ >= 0
t_17,3_ >= 0
t_18,3_ >= 0
t_19,3_ >= 0
t_20,3_ >= 0
t_1,4_ >= 0
t_2,4_ >= 0
t_3,4_ >= 0
t_4,4_ >= 0
t_5,4_ >= 0
t_6,4_ >= 0
t_7,4_ >= 0
t_8,4_ >= 0
t_9,4_ >= 0
t_10,4_ >= 0
t_11,4_ >= 0
t_12,4_ >= 0
t_13,4_ >= 0
t_14,4_ >= 0
t_15,4_ >= 0
t_16,4_ >= 0
t_17,4_ >= 0
t_18,4_ >= 0
t_19,4_ >= 0
t_20,4_ >= 0
t_1,5_ >= 0
t_2,5_ >= 0
t_3,5_ >= 0
t_4,5_ >= 0
t_5,5_ >= 0
t_6,5_ >= 0
t_7,5_ >= 0
t_8,5_ >= 0
t_9,5_ >= 0
t_10,5_ >= 0
t_11,5_ >= 0
t_12,5_ >= 0
t_13,5_ >= 0
t_14,5_ >= 0
t_15,5_ >= 0
t_16,5_ >= 0
t_17,5_ >= 0
t_18,5_ >= 0
t_19,5_ >= 0
t_20,5_ >= 0
x_1_ >= -2
x_2_ >= -2
x_3_ >= -2
x_4_ >= -2
x_5_ >= -2
x_6_ >= -2
x_7_ >= -2
x_8_ >= -2
x_9_ >= -2
x_10_ >= -2
x_11_ >= -2
x_12_ >= -2
x_13_ >= -2
x_14_ >= -2
x_15_ >= -2
x_16_ >= -2
x_17_ >= -2
x_18_ >= -2
x_19_ >= -2
x_20_ >= -2
Binary
y_1,1_
y_2,1_
y_3,1_
y_4,1_
y_5,1_
y_6,1_
y_7,1_
y_8,1_
y_9,1_
y_10,1_
y_11,1_
y_12,1_
y_13,1_
y_14,1_
y_15,1_
y_16,1_
y_17,1_
y_18,1_
y_19,1_
y_20,1_
y_1,2_
y_2,2_
y_3,2_
y_4,2_
y_5,2_
y_6,2_
y_7,2_
y_8,2_
y_9,2_
y_10,2_
y_11,2_
y_12,2_
y_13,2_
y_14,2_
y_15,2_
y_16,2_
y_17,2_
y_18,2_
y_19,2_
y_20,2_
y_1,3_
y_2,3_
y_3,3_
y_4,3_
y_5,3_
y_6,3_
y_7,3_
y_8,3_
y_9,3_
y_10,3_
y_11,3_
y_12,3_
y_13,3_
y_14,3_
y_15,3_
y_16,3_
y_17,3_
y_18,3_
y_19,3_
y_20,3_
y_1,4_
y_2,4_
y_3,4_
y_4,4_
y_5,4_
y_6,4_
y_7,4_
y_8,4_
y_9,4_
y_10,4_
y_11,4_
y_12,4_
y_13,4_
y_14,4_
y_15,4_
y_16,4_
y_17,4_
y_18,4_
y_19,4_
y_20,4_
End
